downward/base.txt
62 
65 
66 
69 
133 138 
136 138 
-1 139 
-11 139 
-21 139 
-31 139 
-41 139 
-51 139 
-2 149 140 
-12 150 140 
-149 150 140 
-12 -149 140 
-22 151 140 
-150 151 140 
-22 -150 140 
-32 152 140 
-151 152 140 
-32 -151 140 
-42 153 140 
-152 153 140 
-42 -152 140 
-52 -153 140 
-3 141 
-13 141 
-23 141 
-33 141 
-43 141 
-53 141 
-4 154 142 
-14 155 142 
-154 155 142 
-14 -154 142 
-24 156 142 
-155 156 142 
-24 -155 142 
-34 157 142 
-156 157 142 
-34 -156 142 
-44 158 142 
-157 158 142 
-44 -157 142 
-54 -158 142 
-5 159 143 
-15 160 143 
-159 160 143 
-15 -159 143 
-25 161 143 
-160 161 143 
-25 -160 143 
-35 162 143 
-161 162 143 
-35 -161 143 
-45 163 143 
-162 163 143 
-45 -162 143 
-55 -163 143 
-6 164 144 
-16 165 144 
-164 165 144 
-16 -164 144 
-26 166 144 
-165 166 144 
-26 -165 144 
-36 167 144 
-166 167 144 
-36 -166 144 
-46 168 144 
-167 168 144 
-46 -167 144 
-56 -168 144 
-7 169 145 
-17 170 145 
-169 170 145 
-17 -169 145 
-27 171 145 
-170 171 145 
-27 -170 145 
-37 172 145 
-171 172 145 
-37 -171 145 
-47 173 145 
-172 173 145 
-47 -172 145 
-57 -173 145 
-8 146 
-18 146 
-28 146 
-38 146 
-48 146 
-58 146 
-9 174 147 
-19 175 147 
-174 175 147 
-19 -174 147 
-29 176 147 
-175 176 147 
-29 -175 147 
-39 177 147 
-176 177 147 
-39 -176 147 
-49 178 147 
-177 178 147 
-49 -177 147 
-59 -178 147 
-10 148 
-20 148 
-30 148 
-40 148 
-50 148 
-60 148 
-61 179 
-62 -179 
-63 180 
-64 181 
-180 181 
-64 -180 
-65 -181 
-66 182 
-67 183 
-182 183 
-67 -182 
-68 -183 
-69 184 
-70 185 
-184 185 
-70 -184 
-71 -185 
-72 186 
-73 -186 
-74 187 
-75 188 
-187 188 
-75 -187 
-76 -188 
-77 189 
-78 190 
-189 190 
-78 -189 
-79 -190 
-80 191 
-81 192 
-191 192 
-81 -191 
-82 -192 
-83 193 
-84 -193 
-85 194 
-86 195 
-194 195 
-86 -194 
-87 -195 
-88 196 
-89 197 
-196 197 
-89 -196 
-90 -197 
-91 198 
-92 199 
-198 199 
-92 -198 
-93 -199 
-94 200 
-95 -200 
-96 201 
-97 202 
-201 202 
-97 -201 
-98 -202 
-99 203 
-100 204 
-203 204 
-100 -203 
-101 -204 
-102 205 
-103 206 
-205 206 
-103 -205 
-104 -206 
-105 207 
-106 -207 
-107 208 
-108 209 
-208 209 
-108 -208 
-109 -209 
-110 210 
-111 211 
-210 211 
-111 -210 
-112 -211 
-113 212 
-114 213 
-212 213 
-114 -212 
-115 -213 
-116 214 
-117 -214 
-118 215 
-119 216 
-215 216 
-119 -215 
-120 -216 
-121 217 
-122 218 
-217 218 
-122 -217 
-123 -218 
-124 219 
-125 220 
-219 220 
-125 -219 
-126 -220 
-127 221 
-128 -221 
-129 222 
-130 223 
-222 223 
-130 -222 
-131 -223 
-132 224 
-133 225 
-224 225 
-133 -224 
-134 -225 
-135 226 
-136 227 
-226 227 
-136 -226 
-137 -227 
-1 228 
-2 229 
-228 229 
-2 -228 
-3 230 
-229 230 
-3 -229 
-4 231 
-230 231 
-4 -230 
-5 232 
-231 232 
-5 -231 
-6 233 
-232 233 
-6 -232 
-7 234 
-233 234 
-7 -233 
-8 235 
-234 235 
-8 -234 
-9 236 
-235 236 
-9 -235 
-10 -236 
-1 61 
-1 63 
-2 62 
-2 63 
-3 61 
-3 64 
-4 62 
-4 64 
-5 61 
-6 62 
-7 61 
-7 65 
-7 66 
-8 62 
-8 65 
-8 67 
-9 61 
-9 65 
-9 69 
-10 62 
-10 65 
-10 70 
-1 76 
-1 77 
-2 76 
-2 78 
-3 76 
-3 80 
-4 76 
-4 81 
-5 73 
-6 72 
-7 74 
-7 79 
-8 74 
-8 79 
-9 75 
-9 82 
-10 75 
-10 82 
-72 61 6 
-73 62 5 
-74 63 7 8 
-75 64 9 10 
-76 65 1 2 3 4 
-77 66 1 
-78 67 2 
-79 68 7 8 
-80 69 3 
-81 70 4 
-82 71 9 10 
-11 237 
-12 238 
-237 238 
-12 -237 
-13 239 
-238 239 
-13 -238 
-14 240 
-239 240 
-14 -239 
-15 241 
-240 241 
-15 -240 
-16 242 
-241 242 
-16 -241 
-17 243 
-242 243 
-17 -242 
-18 244 
-243 244 
-18 -243 
-19 245 
-244 245 
-19 -244 
-20 -245 
-11 72 
-11 74 
-12 73 
-12 74 
-13 72 
-13 75 
-14 73 
-14 75 
-15 72 
-16 73 
-17 72 
-17 76 
-17 77 
-18 73 
-18 76 
-18 78 
-19 72 
-19 76 
-19 80 
-20 73 
-20 76 
-20 81 
-11 87 
-11 88 
-12 87 
-12 89 
-13 87 
-13 91 
-14 87 
-14 92 
-15 84 
-16 83 
-17 85 
-17 90 
-18 85 
-18 90 
-19 86 
-19 93 
-20 86 
-20 93 
-83 72 16 
-84 73 15 
-85 74 17 18 
-86 75 19 20 
-87 76 11 12 13 14 
-88 77 11 
-89 78 12 
-90 79 17 18 
-91 80 13 
-92 81 14 
-93 82 19 20 
-21 246 
-22 247 
-246 247 
-22 -246 
-23 248 
-247 248 
-23 -247 
-24 249 
-248 249 
-24 -248 
-25 250 
-249 250 
-25 -249 
-26 251 
-250 251 
-26 -250 
-27 252 
-251 252 
-27 -251 
-28 253 
-252 253 
-28 -252 
-29 254 
-253 254 
-29 -253 
-30 -254 
-21 83 
-21 85 
-22 84 
-22 85 
-23 83 
-23 86 
-24 84 
-24 86 
-25 83 
-26 84 
-27 83 
-27 87 
-27 88 
-28 84 
-28 87 
-28 89 
-29 83 
-29 87 
-29 91 
-30 84 
-30 87 
-30 92 
-21 98 
-21 99 
-22 98 
-22 100 
-23 98 
-23 102 
-24 98 
-24 103 
-25 95 
-26 94 
-27 96 
-27 101 
-28 96 
-28 101 
-29 97 
-29 104 
-30 97 
-30 104 
-94 83 26 
-95 84 25 
-96 85 27 28 
-97 86 29 30 
-98 87 21 22 23 24 
-99 88 21 
-100 89 22 
-101 90 27 28 
-102 91 23 
-103 92 24 
-104 93 29 30 
-31 255 
-32 256 
-255 256 
-32 -255 
-33 257 
-256 257 
-33 -256 
-34 258 
-257 258 
-34 -257 
-35 259 
-258 259 
-35 -258 
-36 260 
-259 260 
-36 -259 
-37 261 
-260 261 
-37 -260 
-38 262 
-261 262 
-38 -261 
-39 263 
-262 263 
-39 -262 
-40 -263 
-31 94 
-31 96 
-32 95 
-32 96 
-33 94 
-33 97 
-34 95 
-34 97 
-35 94 
-36 95 
-37 94 
-37 98 
-37 99 
-38 95 
-38 98 
-38 100 
-39 94 
-39 98 
-39 102 
-40 95 
-40 98 
-40 103 
-31 109 
-31 110 
-32 109 
-32 111 
-33 109 
-33 113 
-34 109 
-34 114 
-35 106 
-36 105 
-37 107 
-37 112 
-38 107 
-38 112 
-39 108 
-39 115 
-40 108 
-40 115 
-105 94 36 
-106 95 35 
-107 96 37 38 
-108 97 39 40 
-109 98 31 32 33 34 
-110 99 31 
-111 100 32 
-112 101 37 38 
-113 102 33 
-114 103 34 
-115 104 39 40 
-41 264 
-42 265 
-264 265 
-42 -264 
-43 266 
-265 266 
-43 -265 
-44 267 
-266 267 
-44 -266 
-45 268 
-267 268 
-45 -267 
-46 269 
-268 269 
-46 -268 
-47 270 
-269 270 
-47 -269 
-48 271 
-270 271 
-48 -270 
-49 272 
-271 272 
-49 -271 
-50 -272 
-41 105 
-41 107 
-42 106 
-42 107 
-43 105 
-43 108 
-44 106 
-44 108 
-45 105 
-46 106 
-47 105 
-47 109 
-47 110 
-48 106 
-48 109 
-48 111 
-49 105 
-49 109 
-49 113 
-50 106 
-50 109 
-50 114 
-41 120 
-41 121 
-42 120 
-42 122 
-43 120 
-43 124 
-44 120 
-44 125 
-45 117 
-46 116 
-47 118 
-47 123 
-48 118 
-48 123 
-49 119 
-49 126 
-50 119 
-50 126 
-116 105 46 
-117 106 45 
-118 107 47 48 
-119 108 49 50 
-120 109 41 42 43 44 
-121 110 41 
-122 111 42 
-123 112 47 48 
-124 113 43 
-125 114 44 
-126 115 49 50 
-51 273 
-52 274 
-273 274 
-52 -273 
-53 275 
-274 275 
-53 -274 
-54 276 
-275 276 
-54 -275 
-55 277 
-276 277 
-55 -276 
-56 278 
-277 278 
-56 -277 
-57 279 
-278 279 
-57 -278 
-58 280 
-279 280 
-58 -279 
-59 281 
-280 281 
-59 -280 
-60 -281 
-51 116 
-51 118 
-52 117 
-52 118 
-53 116 
-53 119 
-54 117 
-54 119 
-55 116 
-56 117 
-57 116 
-57 120 
-57 121 
-58 117 
-58 120 
-58 122 
-59 116 
-59 120 
-59 124 
-60 117 
-60 120 
-60 125 
-51 131 
-51 132 
-52 131 
-52 133 
-53 131 
-53 135 
-54 131 
-54 136 
-55 128 
-56 127 
-57 129 
-57 134 
-58 129 
-58 134 
-59 130 
-59 137 
-60 130 
-60 137 
-127 116 56 
-128 117 55 
-129 118 57 58 
-130 119 59 60 
-131 120 51 52 53 54 
-132 121 51 
-133 122 52 
-134 123 57 58 
-135 124 53 
-136 125 54 
-137 126 59 60 
